# Objective value = 5
y1 0
y2 0
y3 0
y4 1
y5 1
y6 0
y7 0
y8 1
y9 0
y10 0
y11 0
y12 1
y13 0
y14 0
y15 1
y16 0
y17 0
y18 0
y19 0
y20 0
y21 0
y22 0
y23 0
y24 0
y25 0
x1_1 0
x1_2 0
x1_3 0
x1_4 0
x1_5 0
x1_6 0
x1_7 0
x1_8 0
x1_9 0
x1_10 0
x1_11 0
x1_12 1
x1_13 0
x1_14 0
x1_15 0
x1_16 0
x1_17 0
x1_18 0
x1_19 0
x1_20 0
x1_21 0
x1_22 0
x1_23 0
x1_24 0
x1_25 0
x2_1 0
x2_2 0
x2_3 0
x2_4 0
x2_5 0
x2_6 0
x2_7 0
x2_8 1
x2_9 0
x2_10 0
x2_11 0
x2_12 0
x2_13 0
x2_14 0
x2_15 0
x2_16 0
x2_17 0
x2_18 0
x2_19 0
x2_20 0
x2_21 0
x2_22 0
x2_23 0
x2_24 0
x2_25 0
x3_1 0
x3_2 0
x3_3 0
x3_4 0
x3_5 1
x3_6 0
x3_7 0
x3_8 0
x3_9 0
x3_10 0
x3_11 0
x3_12 0
x3_13 0
x3_14 0
x3_15 0
x3_16 0
x3_17 0
x3_18 0
x3_19 0
x3_20 0
x3_21 0
x3_22 0
x3_23 0
x3_24 0
x3_25 0
x4_1 0
x4_2 0
x4_3 0
x4_4 1
x4_5 0
x4_6 0
x4_7 0
x4_8 0
x4_9 0
x4_10 0
x4_11 0
x4_12 0
x4_13 0
x4_14 0
x4_15 0
x4_16 0
x4_17 0
x4_18 0
x4_19 0
x4_20 0
x4_21 0
x4_22 0
x4_23 0
x4_24 0
x4_25 0
x5_1 0
x5_2 0
x5_3 0
x5_4 0
x5_5 0
x5_6 0
x5_7 0
x5_8 0
x5_9 0
x5_10 0
x5_11 0
x5_12 0
x5_13 0
x5_14 0
x5_15 1
x5_16 0
x5_17 0
x5_18 0
x5_19 0
x5_20 0
x5_21 0
x5_22 0
x5_23 0
x5_24 0
x5_25 0
x6_1 0
x6_2 0
x6_3 0
x6_4 0
x6_5 1
x6_6 0
x6_7 0
x6_8 0
x6_9 0
x6_10 0
x6_11 0
x6_12 0
x6_13 0
x6_14 0
x6_15 0
x6_16 0
x6_17 0
x6_18 0
x6_19 0
x6_20 0
x6_21 0
x6_22 0
x6_23 0
x6_24 0
x6_25 0
x7_1 0
x7_2 0
x7_3 0
x7_4 1
x7_5 0
x7_6 0
x7_7 0
x7_8 0
x7_9 0
x7_10 0
x7_11 0
x7_12 0
x7_13 0
x7_14 0
x7_15 0
x7_16 0
x7_17 0
x7_18 0
x7_19 0
x7_20 0
x7_21 0
x7_22 0
x7_23 0
x7_24 0
x7_25 0
x8_1 0
x8_2 0
x8_3 0
x8_4 0
x8_5 0
x8_6 0
x8_7 0
x8_8 0
x8_9 0
x8_10 0
x8_11 0
x8_12 0
x8_13 0
x8_14 0
x8_15 1
x8_16 0
x8_17 0
x8_18 0
x8_19 0
x8_20 0
x8_21 0
x8_22 0
x8_23 0
x8_24 0
x8_25 0
x9_1 0
x9_2 0
x9_3 0
x9_4 0
x9_5 0
x9_6 0
x9_7 0
x9_8 0
x9_9 0
x9_10 0
x9_11 0
x9_12 1
x9_13 0
x9_14 0
x9_15 0
x9_16 0
x9_17 0
x9_18 0
x9_19 0
x9_20 0
x9_21 0
x9_22 0
x9_23 0
x9_24 0
x9_25 0
x10_1 0
x10_2 0
x10_3 0
x10_4 0
x10_5 0
x10_6 0
x10_7 0
x10_8 1
x10_9 0
x10_10 0
x10_11 0
x10_12 0
x10_13 0
x10_14 0
x10_15 0
x10_16 0
x10_17 0
x10_18 0
x10_19 0
x10_20 0
x10_21 0
x10_22 0
x10_23 0
x10_24 0
x10_25 0
x11_1 0
x11_2 0
x11_3 0
x11_4 0
x11_5 0
x11_6 0
x11_7 0
x11_8 0
x11_9 0
x11_10 0
x11_11 0
x11_12 0
x11_13 0
x11_14 0
x11_15 1
x11_16 0
x11_17 0
x11_18 0
x11_19 0
x11_20 0
x11_21 0
x11_22 0
x11_23 0
x11_24 0
x11_25 0
x12_1 0
x12_2 0
x12_3 0
x12_4 0
x12_5 0
x12_6 0
x12_7 0
x12_8 0
x12_9 0
x12_10 0
x12_11 0
x12_12 1
x12_13 0
x12_14 0
x12_15 0
x12_16 0
x12_17 0
x12_18 0
x12_19 0
x12_20 0
x12_21 0
x12_22 0
x12_23 0
x12_24 0
x12_25 0
x13_1 0
x13_2 0
x13_3 0
x13_4 0
x13_5 0
x13_6 0
x13_7 0
x13_8 1
x13_9 0
x13_10 0
x13_11 0
x13_12 0
x13_13 0
x13_14 0
x13_15 0
x13_16 0
x13_17 0
x13_18 0
x13_19 0
x13_20 0
x13_21 0
x13_22 0
x13_23 0
x13_24 0
x13_25 0
x14_1 0
x14_2 0
x14_3 0
x14_4 0
x14_5 1
x14_6 0
x14_7 0
x14_8 0
x14_9 0
x14_10 0
x14_11 0
x14_12 0
x14_13 0
x14_14 0
x14_15 0
x14_16 0
x14_17 0
x14_18 0
x14_19 0
x14_20 0
x14_21 0
x14_22 0
x14_23 0
x14_24 0
x14_25 0
x15_1 0
x15_2 0
x15_3 0
x15_4 1
x15_5 0
x15_6 0
x15_7 0
x15_8 0
x15_9 0
x15_10 0
x15_11 0
x15_12 0
x15_13 0
x15_14 0
x15_15 0
x15_16 0
x15_17 0
x15_18 0
x15_19 0
x15_20 0
x15_21 0
x15_22 0
x15_23 0
x15_24 0
x15_25 0
x16_1 0
x16_2 0
x16_3 0
x16_4 0
x16_5 0
x16_6 0
x16_7 0
x16_8 1
x16_9 0
x16_10 0
x16_11 0
x16_12 0
x16_13 0
x16_14 0
x16_15 0
x16_16 0
x16_17 0
x16_18 0
x16_19 0
x16_20 0
x16_21 0
x16_22 0
x16_23 0
x16_24 0
x16_25 0
x17_1 0
x17_2 0
x17_3 0
x17_4 0
x17_5 1
x17_6 0
x17_7 0
x17_8 0
x17_9 0
x17_10 0
x17_11 0
x17_12 0
x17_13 0
x17_14 0
x17_15 0
x17_16 0
x17_17 0
x17_18 0
x17_19 0
x17_20 0
x17_21 0
x17_22 0
x17_23 0
x17_24 0
x17_25 0
x18_1 0
x18_2 0
x18_3 0
x18_4 1
x18_5 0
x18_6 0
x18_7 0
x18_8 0
x18_9 0
x18_10 0
x18_11 0
x18_12 0
x18_13 0
x18_14 0
x18_15 0
x18_16 0
x18_17 0
x18_18 0
x18_19 0
x18_20 0
x18_21 0
x18_22 0
x18_23 0
x18_24 0
x18_25 0
x19_1 0
x19_2 0
x19_3 0
x19_4 0
x19_5 0
x19_6 0
x19_7 0
x19_8 0
x19_9 0
x19_10 0
x19_11 0
x19_12 0
x19_13 0
x19_14 0
x19_15 1
x19_16 0
x19_17 0
x19_18 0
x19_19 0
x19_20 0
x19_21 0
x19_22 0
x19_23 0
x19_24 0
x19_25 0
x20_1 0
x20_2 0
x20_3 0
x20_4 0
x20_5 0
x20_6 0
x20_7 0
x20_8 0
x20_9 0
x20_10 0
x20_11 0
x20_12 1
x20_13 0
x20_14 0
x20_15 0
x20_16 0
x20_17 0
x20_18 0
x20_19 0
x20_20 0
x20_21 0
x20_22 0
x20_23 0
x20_24 0
x20_25 0
x21_1 0
x21_2 0
x21_3 0
x21_4 1
x21_5 0
x21_6 0
x21_7 0
x21_8 0
x21_9 0
x21_10 0
x21_11 0
x21_12 0
x21_13 0
x21_14 0
x21_15 0
x21_16 0
x21_17 0
x21_18 0
x21_19 0
x21_20 0
x21_21 0
x21_22 0
x21_23 0
x21_24 0
x21_25 0
x22_1 0
x22_2 0
x22_3 0
x22_4 0
x22_5 0
x22_6 0
x22_7 0
x22_8 0
x22_9 0
x22_10 0
x22_11 0
x22_12 0
x22_13 0
x22_14 0
x22_15 1
x22_16 0
x22_17 0
x22_18 0
x22_19 0
x22_20 0
x22_21 0
x22_22 0
x22_23 0
x22_24 0
x22_25 0
x23_1 0
x23_2 0
x23_3 0
x23_4 0
x23_5 0
x23_6 0
x23_7 0
x23_8 0
x23_9 0
x23_10 0
x23_11 0
x23_12 1
x23_13 0
x23_14 0
x23_15 0
x23_16 0
x23_17 0
x23_18 0
x23_19 0
x23_20 0
x23_21 0
x23_22 0
x23_23 0
x23_24 0
x23_25 0
x24_1 0
x24_2 0
x24_3 0
x24_4 0
x24_5 0
x24_6 0
x24_7 0
x24_8 1
x24_9 0
x24_10 0
x24_11 0
x24_12 0
x24_13 0
x24_14 0
x24_15 0
x24_16 0
x24_17 0
x24_18 0
x24_19 0
x24_20 0
x24_21 0
x24_22 0
x24_23 0
x24_24 0
x24_25 0
x25_1 0
x25_2 0
x25_3 0
x25_4 0
x25_5 1
x25_6 0
x25_7 0
x25_8 0
x25_9 0
x25_10 0
x25_11 0
x25_12 0
x25_13 0
x25_14 0
x25_15 0
x25_16 0
x25_17 0
x25_18 0
x25_19 0
x25_20 0
x25_21 0
x25_22 0
x25_23 0
x25_24 0
x25_25 0
